res/heu/pdp_100_mem_1.0/1.0_1.0/lrc202.txt
Vehicle 0
0 45 36 87 26 38 96 5 24 4 56 27 33 84 55 75 78 89 49 77 100 103 

Vehicle 2
0 31 7 9 25 10 76 34 30 12 85 58 11 37 62 82 81 88 44 63 8 95 59 2 60 61 53 103 

Vehicle 3
0 51 102 3 1 54 23 19 74 20 52 71 40 70 43 94 6 57 91 103 

Vehicle 4
0 48 50 42 99 18 14 65 13 69 16 15 29 32 93 35 101 21 22 39 47 64 41 72 86 66 92 98 90 67 17 46 73 68 83 80 97 28 79 103 

Vehicle used: 4
Total Distance Traveled: 1395.2443870023524
Total Penalty of Delay: 0.0
Time Elasped: 29265
Vehicle 0 with capacity 1000
			Node 0
		Load 0.0
		Time 0.0
		Delay 0.0
			Membership 1
			Time Window [0, 960]
			Load at node 0
			Service time at node 0
			Location (40, 50)
	Distance between 17.88854381999832
			Node 45
		Load 19.0
		Time 260.0
		Delay 0.0
			Membership 1
			Time Window [260, 380]
			Load at node 19
			Service time at node 10
			Location (24, 58)
	Distance between 22.090722034374522
			Node 36
		Load 24.0
		Time 292.0907220343745
		Delay 0.0
			Membership 1
			Time Window [286, 406]
			Load at node 5
			Service time at node 10
			Location (2, 60)
	Distance between 20.09975124224178
			Node 87
		Load 19.0
		Time 322.1904732766163
		Delay 0.0
			Membership 1
			Time Window [255, 375]
			Load at node -5
			Service time at node 10
			Location (0, 40)
	Distance between 22.360679774997898
			Node 26
		Load 24.0
		Time 375.0
		Delay 0.0
			Membership 1
			Time Window [375, 495]
			Load at node 5
			Service time at node 10
			Location (20, 50)
	Distance between 13.416407864998739
			Node 38
		Load 51.0
		Time 398.41640786499875
		Delay 0.0
			Membership 1
			Time Window [365, 485]
			Load at node 27
			Service time at node 10
			Location (8, 56)
	Distance between 12.165525060596439
			Node 96
		Load 32.0
		Time 420.5819329255952
		Delay 0.0
			Membership 1
			Time Window [352, 472]
			Load at node -19
			Service time at node 10
			Location (6, 68)
	Distance between 15.0
			Node 5
		Load 42.0
		Time 445.5819329255952
		Delay 0.0
			Membership 1
			Time Window [367, 487]
			Load at node 10
			Service time at node 10
			Location (15, 80)
	Distance between 3.0
			Node 24
		Load 52.0
		Time 489.0
		Delay 0.0
			Membership 1
			Time Window [489, 609]
			Load at node 10
			Service time at node 10
			Location (18, 80)
	Distance between 5.0
			Node 4
		Load 72.0
		Time 504.0
		Delay 0.0
			Membership 1
			Time Window [388, 508]
			Load at node 20
			Service time at node 10
			Location (18, 75)
	Distance between 4.0
			Node 56
		Load 62.0
		Time 518.0
		Delay 0.0
			Membership 1
			Time Window [0, 919]
			Load at node -10
			Service time at node 10
			Location (22, 75)
	Distance between 17.0
			Node 27
		Load 78.0
		Time 599.0
		Delay 0.0
			Membership 1
			Time Window [599, 719]
			Load at node 16
			Service time at node 10
			Location (30, 60)
	Distance between 10.0
			Node 33
		Load 99.0
		Time 619.0
		Delay 0.0
			Membership 1
			Time Window [612, 732]
			Load at node 21
			Service time at node 0
			Location (40, 60)
	Distance between 0.0
			Node 84
		Load 78.0
		Time 619.0
		Delay 0.0
			Membership 1
			Time Window [612, 732]
			Load at node -21
			Service time at node 10
			Location (40, 60)
	Distance between 29.154759474226502
			Node 55
		Load 58.0
		Time 658.1547594742265
		Delay 0.0
			Membership 1
			Time Window [574, 694]
			Load at node -20
			Service time at node 10
			Location (55, 85)
	Distance between 12.0
			Node 75
		Load 48.0
		Time 680.1547594742265
		Delay 0.0
			Membership 1
			Time Window [657, 777]
			Load at node -10
			Service time at node 10
			Location (67, 85)
	Distance between 27.730849247724095
			Node 78
		Load 32.0
		Time 717.8856087219506
		Delay 0.0
			Membership 1
			Time Window [601, 721]
			Load at node -16
			Service time at node 10
			Location (55, 60)
	Distance between 6.0
			Node 89
		Load 5.0
		Time 733.8856087219506
		Delay 0.0
			Membership 1
			Time Window [0, 934]
			Load at node -27
			Service time at node 10
			Location (55, 54)
	Distance between 6.324555320336759
			Node 49
		Load 8.0
		Time 808.0
		Delay 0.0
			Membership 1
			Time Window [808, 928]
			Load at node 3
			Service time at node 10
			Location (61, 52)
	Distance between 5.656854249492381
			Node 77
		Load 3.0
		Time 823.6568542494924
		Delay 0.0
			Membership 1
			Time Window [0, 932]
			Load at node -5
			Service time at node 10
			Location (57, 48)
	Distance between 10.04987562112089
			Node 100
		Load 0.0
		Time 843.7067298706133
		Delay 0.0
			Membership 1
			Time Window [822, 942]
			Load at node -3
			Service time at node 10
			Location (47, 47)
	Distance between 7.615773105863909
			Node 103
		Load 0.0
		Time 861.3225029764773
		Delay 0.0
			Membership 1
			Time Window [0, 960]
			Load at node 0
			Service time at node 0
			Location (40, 50)

Vehicle 2 with capacity 1000
			Node 0
		Load 0.0
		Time 0.0
		Delay 0.0
			Membership 1
			Time Window [0, 960]
			Load at node 0
			Service time at node 0
			Location (40, 50)
	Distance between 11.180339887498949
			Node 31
		Load 16.0
		Time 11.180339887498949
		Delay 0.0
			Membership 1
			Time Window [11, 131]
			Load at node 16
			Service time at node 10
			Location (35, 40)
	Distance between 27.459060435491963
			Node 7
		Load 36.0
		Time 48.63940032299091
		Delay 0.0
			Membership 1
			Time Window [0, 917]
			Load at node 20
			Service time at node 10
			Location (8, 45)
	Distance between 3.0
			Node 9
		Load 46.0
		Time 61.63940032299091
		Delay 0.0
			Membership 1
			Time Window [35, 155]
			Load at node 10
			Service time at node 10
			Location (5, 45)
	Distance between 3.0
			Node 25
		Load 56.0
		Time 105.0
		Delay 0.0
			Membership 1
			Time Window [105, 225]
			Load at node 10
			Service time at node 10
			Location (2, 45)
	Distance between 5.0
			Node 10
		Load 76.0
		Time 174.0
		Delay 0.0
			Membership 1
			Time Window [174, 294]
			Load at node 20
			Service time at node 10
			Location (2, 40)
	Distance between 6.0
			Node 76
		Load 66.0
		Time 195.0
		Delay 0.0
			Membership 1
			Time Window [195, 315]
			Load at node -10
			Service time at node 10
			Location (8, 40)
	Distance between 25.942243542145693
			Node 34
		Load 93.0
		Time 230.9422435421457
		Delay 0.0
			Membership 1
			Time Window [157, 277]
			Load at node 27
			Service time at node 10
			Location (31, 52)
	Distance between 26.076809620810597
			Node 30
		Load 110.0
		Time 267.0190531629563
		Delay 0.0
			Membership 1
			Time Window [191, 311]
			Load at node 17
			Service time at node 10
			Location (45, 30)
	Distance between 20.223748416156685
			Node 12
		Load 150.0
		Time 297.242801579113
		Delay 0.0
			Membership 1
			Time Window [254, 374]
			Load at node 40
			Service time at node 10
			Location (42, 10)
	Distance between 6.4031242374328485
			Node 85
		Load 123.0
		Time 313.64592581654586
		Delay 0.0
			Membership 1
			Time Window [201, 321]
			Load at node -27
			Service time at node 10
			Location (38, 5)
	Distance between 4.0
			Node 58
		Load 103.0
		Time 327.64592581654586
		Delay 0.0
			Membership 1
			Time Window [0, 904]
			Load at node -20
			Service time at node 10
			Location (42, 5)
	Distance between 2.0
			Node 11
		Load 123.0
		Time 339.64592581654586
		Delay 0.0
			Membership 1
			Time Window [335, 455]
			Load at node 20
			Service time at node 10
			Location (44, 5)
	Distance between 17.46424919657298
			Node 37
		Load 154.0
		Time 367.1101750131188
		Delay 0.0
			Membership 1
			Time Window [268, 388]
			Load at node 31
			Service time at node 10
			Location (60, 12)
	Distance between 9.433981132056603
			Node 62
		Load 134.0
		Time 386.5441561451754
		Delay 0.0
			Membership 1
			Time Window [326, 446]
			Load at node -20
			Service time at node 10
			Location (55, 20)
	Distance between 15.811388300841896
			Node 82
		Load 118.0
		Time 412.3555444460173
		Delay 0.0
			Membership 1
			Time Window [375, 495]
			Load at node -16
			Service time at node 10
			Location (40, 15)
	Distance between 14.142135623730951
			Node 81
		Load 101.0
		Time 436.49768006974824
		Delay 0.0
			Membership 1
			Time Window [397, 517]
			Load at node -17
			Service time at node 10
			Location (30, 25)
	Distance between 7.0710678118654755
			Node 88
		Load 70.0
		Time 453.5687478816137
		Delay 0.0
			Membership 1
			Time Window [0, 925]
			Load at node -31
			Service time at node 10
			Location (25, 30)
	Distance between 14.317821063276353
			Node 44
		Load 83.0
		Time 477.8865689448901
		Delay 0.0
			Membership 1
			Time Window [359, 479]
			Load at node 13
			Service time at node 10
			Location (12, 24)
	Distance between 4.47213595499958
			Node 63
		Load 43.0
		Time 492.3587048998897
		Delay 0.0
			Membership 1
			Time Window [0, 907]
			Load at node -40
			Service time at node 10
			Location (10, 20)
	Distance between 15.811388300841896
			Node 8
		Load 53.0
		Time 653.0
		Delay 0.0
			Membership 1
			Time Window [653, 773]
			Load at node 10
			Service time at node 10
			Location (5, 35)
	Distance between 11.180339887498949
			Node 95
		Load 40.0
		Time 703.0
		Delay 0.0
			Membership 1
			Time Window [703, 823]
			Load at node -13
			Service time at node 10
			Location (0, 45)
	Distance between 33.54101966249684
			Node 59
		Load 30.0
		Time 746.5410196624969
		Delay 0.0
			Membership 1
			Time Window [0, 914]
			Load at node -10
			Service time at node 10
			Location (15, 75)
	Distance between 7.0710678118654755
			Node 2
		Load 70.0
		Time 763.6120874743624
		Delay 0.0
			Membership 1
			Time Window [644, 764]
			Load at node 40
			Service time at node 10
			Location (20, 80)
	Distance between 20.615528128088304
			Node 60
		Load 60.0
		Time 794.2276156024507
		Delay 0.0
			Membership 1
			Time Window [694, 814]
			Load at node -10
			Service time at node 10
			Location (15, 60)
	Distance between 17.46424919657298
			Node 61
		Load 40.0
		Time 821.6918647990236
		Delay 0.0
			Membership 1
			Time Window [810, 930]
			Load at node -20
			Service time at node 10
			Location (31, 67)
	Distance between 4.47213595499958
			Node 53
		Load 0.0
		Time 836.1640007540232
		Delay 0.0
			Membership 1
			Time Window [810, 930]
			Load at node -40
			Service time at node 10
			Location (35, 69)
	Distance between 19.6468827043885
			Node 103
		Load 0.0
		Time 865.8108834584117
		Delay 0.0
			Membership 1
			Time Window [0, 960]
			Load at node 0
			Service time at node 0
			Location (40, 50)

Vehicle 3 with capacity 1000
			Node 0
		Load 0.0
		Time 0.0
		Delay 0.0
			Membership 1
			Time Window [0, 960]
			Load at node 0
			Service time at node 0
			Location (40, 50)
	Distance between 14.142135623730951
			Node 51
		Load 9.0
		Time 14.142135623730951
		Delay 0.0
			Membership 1
			Time Window [0, 935]
			Load at node 9
			Service time at node 10
			Location (26, 52)
	Distance between 30.59411708155671
			Node 102
		Load 0.0
		Time 54.73625270528766
		Delay 0.0
			Membership 1
			Time Window [37, 157]
			Load at node -9
			Service time at node 10
			Location (20, 82)
	Distance between 3.0
			Node 3
		Load 20.0
		Time 67.73625270528765
		Delay 0.0
			Membership 1
			Time Window [0, 909]
			Load at node 20
			Service time at node 10
			Location (20, 85)
	Distance between 2.0
			Node 1
		Load 30.0
		Time 79.73625270528765
		Delay 0.0
			Membership 1
			Time Window [0, 910]
			Load at node 10
			Service time at node 10
			Location (22, 85)
	Distance between 3.0
			Node 54
		Load 10.0
		Time 92.73625270528765
		Delay 0.0
			Membership 1
			Time Window [0, 911]
			Load at node -20
			Service time at node 10
			Location (25, 85)
	Distance between 30.4138126514911
			Node 23
		Load 20.0
		Time 133.15006535677875
		Delay 0.0
			Membership 1
			Time Window [33, 153]
			Load at node 10
			Service time at node 10
			Location (55, 80)
	Distance between 11.180339887498949
			Node 19
		Load 60.0
		Time 154.3304052442777
		Delay 0.0
			Membership 1
			Time Window [43, 163]
			Load at node 40
			Service time at node 10
			Location (65, 85)
	Distance between 3.0
			Node 74
		Load 50.0
		Time 167.3304052442777
		Delay 0.0
			Membership 1
			Time Window [0, 909]
			Load at node -10
			Service time at node 10
			Location (65, 82)
	Distance between 5.385164807134504
			Node 20
		Load 60.0
		Time 182.71557005141221
		Delay 0.0
			Membership 1
			Time Window [64, 184]
			Load at node 10
			Service time at node 10
			Location (60, 80)
	Distance between 5.385164807134504
			Node 52
		Load 50.0
		Time 217.0
		Delay 0.0
			Membership 1
			Time Window [217, 337]
			Load at node -10
			Service time at node 10
			Location (55, 82)
	Distance between 19.72308292331602
			Node 71
		Load 40.0
		Time 258.0
		Delay 0.0
			Membership 1
			Time Window [258, 378]
			Load at node -10
			Service time at node 10
			Location (45, 65)
	Distance between 28.42534080710379
			Node 40
		Load 49.0
		Time 296.4253408071038
		Delay 0.0
			Membership 1
			Time Window [0, 935]
			Load at node 9
			Service time at node 10
			Location (27, 43)
	Distance between 8.06225774829855
			Node 70
		Load 9.0
		Time 314.4875985554023
		Delay 0.0
			Membership 1
			Time Window [308, 428]
			Load at node -40
			Service time at node 10
			Location (26, 35)
	Distance between 12.083045973594572
			Node 43
		Load 37.0
		Time 349.0
		Delay 0.0
			Membership 1
			Time Window [349, 469]
			Load at node 28
			Service time at node 10
			Location (21, 24)
	Distance between 15.556349186104045
			Node 94
		Load 9.0
		Time 374.55634918610406
		Delay 0.0
			Membership 1
			Time Window [371, 491]
			Load at node -28
			Service time at node 10
			Location (10, 35)
	Distance between 5.0
			Node 6
		Load 39.0
		Time 519.0
		Delay 0.0
			Membership 1
			Time Window [519, 639]
			Load at node 30
			Service time at node 10
			Location (10, 40)
	Distance between 22.80350850198276
			Node 57
		Load 9.0
		Time 551.8035085019827
		Delay 0.0
			Membership 1
			Time Window [547, 667]
			Load at node -30
			Service time at node 10
			Location (4, 18)
	Distance between 16.1245154965971
			Node 91
		Load 0.0
		Time 645.0
		Delay 0.0
			Membership 1
			Time Window [645, 765]
			Load at node -9
			Service time at node 10
			Location (20, 20)
	Distance between 36.05551275463989
			Node 103
		Load 0.0
		Time 691.05551275464
		Delay 0.0
			Membership 1
			Time Window [0, 960]
			Load at node 0
			Service time at node 0
			Location (40, 50)

Vehicle 4 with capacity 1000
			Node 0
		Load 0.0
		Time 0.0
		Delay 0.0
			Membership 1
			Time Window [0, 960]
			Load at node 0
			Service time at node 0
			Location (40, 50)
	Distance between 14.7648230602334
			Node 48
		Load 14.0
		Time 14.7648230602334
		Delay 0.0
			Membership 1
			Time Window [14, 134]
			Load at node 14
			Service time at node 10
			Location (53, 43)
	Distance between 6.708203932499369
			Node 50
		Load 20.0
		Time 31.47302699273277
		Delay 0.0
			Membership 1
			Time Window [0, 929]
			Load at node 6
			Service time at node 10
			Location (56, 37)
	Distance between 15.652475842498529
			Node 42
		Load 22.0
		Time 57.1255028352313
		Delay 0.0
			Membership 1
			Time Window [0, 914]
			Load at node 2
			Service time at node 10
			Location (63, 23)
	Distance between 3.605551275463989
			Node 99
		Load 8.0
		Time 70.7310541106953
		Delay 0.0
			Membership 1
			Time Window [39, 159]
			Load at node -14
			Service time at node 10
			Location (65, 20)
	Distance between 20.615528128088304
			Node 18
		Load 18.0
		Time 101.3465822387836
		Delay 0.0
			Membership 1
			Time Window [80, 200]
			Load at node 10
			Service time at node 10
			Location (85, 25)
	Distance between 8.602325267042627
			Node 14
		Load 28.0
		Time 149.0
		Delay 0.0
			Membership 1
			Time Window [149, 269]
			Load at node 10
			Service time at node 10
			Location (92, 30)
	Distance between 3.0
			Node 65
		Load 18.0
		Time 162.0
		Delay 0.0
			Membership 1
			Time Window [0, 891]
			Load at node -10
			Service time at node 10
			Location (95, 30)
	Distance between 5.0
			Node 13
		Load 38.0
		Time 177.0
		Delay 0.0
			Membership 1
			Time Window [146, 266]
			Load at node 20
			Service time at node 10
			Location (95, 35)
	Distance between 5.0
			Node 69
		Load 28.0
		Time 194.0
		Delay 0.0
			Membership 1
			Time Window [194, 314]
			Load at node -10
			Service time at node 10
			Location (90, 35)
	Distance between 2.0
			Node 16
		Load 48.0
		Time 206.0
		Delay 0.0
			Membership 1
			Time Window [0, 899]
			Load at node 20
			Service time at node 10
			Location (88, 35)
	Distance between 5.0
			Node 15
		Load 58.0
		Time 246.0
		Delay 0.0
			Membership 1
			Time Window [246, 366]
			Load at node 10
			Service time at node 10
			Location (88, 30)
	Distance between 23.53720459187964
			Node 29
		Load 61.0
		Time 279.53720459187963
		Delay 0.0
			Membership 1
			Time Window [167, 287]
			Load at node 3
			Service time at node 10
			Location (65, 35)
	Distance between 7.0710678118654755
			Node 32
		Load 70.0
		Time 296.6082724037451
		Delay 0.0
			Membership 1
			Time Window [268, 388]
			Load at node 9
			Service time at node 10
			Location (64, 42)
	Distance between 13.038404810405298
			Node 93
		Load 68.0
		Time 319.64667721415043
		Delay 0.0
			Membership 1
			Time Window [241, 361]
			Load at node -2
			Service time at node 10
			Location (65, 55)
	Distance between 10.198039027185569
			Node 35
		Load 76.0
		Time 339.844716241336
		Delay 0.0
			Membership 1
			Time Window [0, 922]
			Load at node 8
			Service time at node 10
			Location (63, 65)
	Distance between 15.033296378372908
			Node 101
		Load 70.0
		Time 364.8780126197089
		Delay 0.0
			Membership 1
			Time Window [278, 398]
			Load at node -6
			Service time at node 10
			Location (62, 80)
	Distance between 5.385164807134504
			Node 21
		Load 100.0
		Time 380.2631774268434
		Delay 0.0
			Membership 1
			Time Window [329, 449]
			Load at node 30
			Service time at node 10
			Location (60, 85)
	Distance between 10.198039027185569
			Node 22
		Load 120.0
		Time 400.461216454029
		Delay 0.0
			Membership 1
			Time Window [376, 496]
			Load at node 20
			Service time at node 10
			Location (58, 75)
	Distance between 19.235384061671343
			Node 39
		Load 130.0
		Time 429.69660051570037
		Delay 0.0
			Membership 1
			Time Window [355, 475]
			Load at node 10
			Service time at node 10
			Location (49, 58)
	Distance between 16.278820596099706
			Node 47
		Load 136.0
		Time 455.9754211118001
		Delay 0.0
			Membership 1
			Time Window [359, 479]
			Load at node 6
			Service time at node 10
			Location (37, 47)
	Distance between 13.0
			Node 64
		Load 116.0
		Time 478.9754211118001
		Delay 0.0
			Membership 1
			Time Window [0, 937]
			Load at node -20
			Service time at node 10
			Location (49, 42)
	Distance between 15.264337522473747
			Node 41
		Load 134.0
		Time 504.2397586342738
		Delay 0.0
			Membership 1
			Time Window [395, 515]
			Load at node 18
			Service time at node 10
			Location (57, 29)
	Distance between 22.67156809750927
			Node 72
		Load 104.0
		Time 536.9113267317831
		Delay 0.0
			Membership 1
			Time Window [440, 560]
			Load at node -30
			Service time at node 10
			Location (42, 12)
	Distance between 3.0
			Node 86
		Load 96.0
		Time 549.9113267317831
		Delay 0.0
			Membership 1
			Time Window [537, 657]
			Load at node -8
			Service time at node 10
			Location (42, 15)
	Distance between 16.76305461424021
			Node 66
		Load 86.0
		Time 576.6743813460233
		Delay 0.0
			Membership 1
			Time Window [0, 930]
			Load at node -10
			Service time at node 10
			Location (37, 31)
	Distance between 7.211102550927978
			Node 92
		Load 68.0
		Time 593.8854838969513
		Delay 0.0
			Membership 1
			Time Window [566, 686]
			Load at node -18
			Service time at node 10
			Location (41, 37)
	Distance between 9.219544457292887
			Node 98
		Load 62.0
		Time 613.1050283542442
		Delay 0.0
			Membership 1
			Time Window [557, 677]
			Load at node -6
			Service time at node 10
			Location (50, 35)
	Distance between 22.0
			Node 90
		Load 52.0
		Time 645.1050283542442
		Delay 0.0
			Membership 1
			Time Window [0, 914]
			Load at node -10
			Service time at node 10
			Location (72, 35)
	Distance between 13.0
			Node 67
		Load 32.0
		Time 668.1050283542442
		Delay 0.0
			Membership 1
			Time Window [0, 902]
			Load at node -20
			Service time at node 10
			Location (85, 35)
	Distance between 5.385164807134504
			Node 17
		Load 42.0
		Time 683.4901931613787
		Delay 0.0
			Membership 1
			Time Window [621, 741]
			Load at node 10
			Service time at node 10
			Location (87, 30)
	Distance between 32.01562118716424
			Node 46
		Load 67.0
		Time 725.5058143485429
		Delay 0.0
			Membership 1
			Time Window [713, 833]
			Load at node 25
			Service time at node 10
			Location (67, 5)
	Distance between 30.675723300355934
			Node 73
		Load 47.0
		Time 766.1815376488988
		Delay 0.0
			Membership 1
			Time Window [681, 801]
			Load at node -20
			Service time at node 10
			Location (38, 15)
	Distance between 10.198039027185569
			Node 68
		Load 37.0
		Time 786.3795766760844
		Delay 0.0
			Membership 1
			Time Window [0, 905]
			Load at node -10
			Service time at node 10
			Location (40, 5)
	Distance between 5.0
			Node 83
		Load 28.0
		Time 801.3795766760844
		Delay 0.0
			Membership 1
			Time Window [784, 904]
			Load at node -9
			Service time at node 10
			Location (35, 5)
	Distance between 12.165525060596439
			Node 80
		Load 25.0
		Time 823.5451017366809
		Delay 0.0
			Membership 1
			Time Window [764, 884]
			Load at node -3
			Service time at node 10
			Location (23, 3)
	Distance between 18.110770276274835
			Node 97
		Load 0.0
		Time 851.6558720129557
		Delay 0.0
			Membership 1
			Time Window [0, 892]
			Load at node -25
			Service time at node 10
			Location (5, 5)
	Distance between 11.180339887498949
			Node 28
		Load 20.0
		Time 872.8362119004546
		Delay 0.0
			Membership 1
			Time Window [782, 902]
			Load at node 20
			Service time at node 0
			Location (15, 10)
	Distance between 0.0
			Node 79
		Load 0.0
		Time 872.8362119004546
		Delay 0.0
			Membership 1
			Time Window [782, 902]
			Load at node -20
			Service time at node 10
			Location (15, 10)
	Distance between 47.16990566028302
			Node 103
		Load 0.0
		Time 930.0061175607376
		Delay 0.0
			Membership 1
			Time Window [0, 960]
			Load at node 0
			Service time at node 0
			Location (40, 50)

